NAME: tsp30-43
TYPE: TSP
DIMENSION: 30
EDGE_WEIGHT_TYPE: EUC_2D
NODE_COORD_SECTION
0 37 93
1 70 74
2 95 70
3 38 46
4 60 13
5 3 60
6 24 58
7 17 24
8 18 53
9 17 95
10 28 91
11 94 69
12 99 40
13 51 20
14 15 15
15 63 63
16 40 57
17 52 30
18 26 80
19 72 3
20 21 81
21 28 100
22 48 53
23 20 83
24 91 86
25 69 88
26 74 50
27 47 85
28 65 13
29 23 10
EOF